c This cnf file is generated with the following input: k = 5, n = 150, r = 0.2
p cnf 150 30
-81 -2 135 0
-33 104 72 0
-148 -38 -45 0
49 -39 10 0
2 -67 68 0
48 -17 -10 0
-82 -99 98 0
16 -137 -125 0
-67 -70 -150 0
-129 -97 -52 0
100 149 38 0
-129 -133 5 0
-113 33 131 0
-102 117 150 0
-18 133 -104 0
-53 -101 42 0
1 -35 -53 0
97 51 87 0
3 -22 39 0
129 -54 102 0
-67 137 74 0
-66 67 69 0
54 -9 -122 0
-50 -116 75 0
-98 -117 37 0
133 -75 -28 0
81 134 139 0
-115 -36 68 0
114 -116 70 0
80 -131 135 0
